
Gurobi 11.0.3 (mac64[arm], gurobi_cl) logging started Mon Nov  4 11:51:25 2024

Set parameter TimeLimit to value 600
Set parameter NoRelHeurTime to value 600
Set parameter LogFile to value "gurobi.log"
Using license file /Users/sakai/gurobi.lic
Restricted license - for non-production use only - expires 2025-11-24

Gurobi Optimizer version 11.0.3 build v11.0.3rc0 (mac64[arm] - Darwin 22.6.0 22H123)
Copyright (c) 2024, Gurobi Optimization, LLC

Read LP format model from file ../../../miplib2024_submission/instances.20241102/bnn_mnist_7_label9_adversarial_norm_1.lp
Reading time = 0.08 seconds
: 1193 rows, 1295 columns, 397992 nonzeros

CPU model: Apple M1
Thread count: 8 physical cores, 8 logical processors, using up to 8 threads

Optimize a model with 1193 rows, 1295 columns and 397992 nonzeros
Model fingerprint: 0x5926fc4e
Variable types: 1 continuous, 1294 integer (1294 binary)
Coefficient statistics:
  Matrix range     [1e+00, 5e+02]
  Objective range  [1e+00, 1e+04]
  Bounds range     [1e+00, 1e+00]
  RHS range        [1e+00, 5e+02]
Presolve removed 99 rows and 89 columns
Presolve time: 0.36s
Presolved: 1094 rows, 1206 columns, 351284 nonzeros
Variable types: 0 continuous, 1206 integer (1190 binary)
Starting NoRel heuristic
Found phase-1 solution: relaxation 434
Found phase-1 solution: relaxation 431
Found phase-1 solution: relaxation 290
Found phase-1 solution: relaxation 287
Found phase-1 solution: relaxation 260
Found phase-1 solution: relaxation 228
Found phase-1 solution: relaxation 190
Found phase-1 solution: relaxation 119
Found phase-1 solution: relaxation 85
Found phase-1 solution: relaxation 34
Found phase-1 solution: relaxation 0
Found heuristic solution: objective 11022.000000
Transition to phase 2
Found heuristic solution: objective 10320.000000
Found heuristic solution: objective 10203.000000
Found heuristic solution: objective 9749.0000000
Found heuristic solution: objective 9522.0000000
Found heuristic solution: objective 8960.0000000
Found heuristic solution: objective 8780.0000000
Found heuristic solution: objective 8555.0000000
Found heuristic solution: objective 7854.0000000
Found heuristic solution: objective 7549.0000000
Found heuristic solution: objective 5866.0000000
Found heuristic solution: objective 5154.0000000
Found heuristic solution: objective 5115.0000000
Found heuristic solution: objective 4469.0000000
Found heuristic solution: objective 4222.0000000
Found heuristic solution: objective 3087.0000000
Found heuristic solution: objective 3056.0000000
Found heuristic solution: objective 2505.0000000
Found heuristic solution: objective 2133.0000000
Found heuristic solution: objective 2102.0000000
Found heuristic solution: objective 1933.0000000
Found heuristic solution: objective 1828.0000000
Found heuristic solution: objective 1444.0000000
Elapsed time for NoRel heuristic: 5s (best bound 0)
Found heuristic solution: objective 1421.0000000
Found heuristic solution: objective 1362.0000000
Found heuristic solution: objective 1015.0000000
Found heuristic solution: objective 973.0000000
Found heuristic solution: objective 951.0000000
Found heuristic solution: objective 921.0000000
Found heuristic solution: objective 822.0000000
Found heuristic solution: objective 732.0000000
Found heuristic solution: objective 660.0000000
Found heuristic solution: objective 659.0000000
Found heuristic solution: objective 566.0000000
Found heuristic solution: objective 561.0000000
Found heuristic solution: objective 511.0000000
Found heuristic solution: objective 461.0000000
Found heuristic solution: objective 457.0000000
Elapsed time for NoRel heuristic: 11s (best bound 0)
Found heuristic solution: objective 454.0000000
Found heuristic solution: objective 407.0000000
Found heuristic solution: objective 406.0000000
Found heuristic solution: objective 403.0000000
Elapsed time for NoRel heuristic: 16s (best bound 0)
Found heuristic solution: objective 350.0000000
Elapsed time for NoRel heuristic: 25s (best bound 0)
Found heuristic solution: objective 324.0000000
Found heuristic solution: objective 312.0000000
Found heuristic solution: objective 298.0000000
Elapsed time for NoRel heuristic: 30s (best bound 0)
Found heuristic solution: objective 285.0000000
Found heuristic solution: objective 266.0000000
Found heuristic solution: objective 249.0000000
Found heuristic solution: objective 247.0000000
Elapsed time for NoRel heuristic: 36s (best bound 0)
Found heuristic solution: objective 244.0000000
Found heuristic solution: objective 236.0000000
Found heuristic solution: objective 231.0000000
Elapsed time for NoRel heuristic: 42s (best bound 0)
Found heuristic solution: objective 226.0000000
Found heuristic solution: objective 225.0000000
Found heuristic solution: objective 223.0000000
Found heuristic solution: objective 215.0000000
Elapsed time for NoRel heuristic: 48s (best bound 0)
Found heuristic solution: objective 210.0000000
Found heuristic solution: objective 209.0000000
Found heuristic solution: objective 207.0000000
Found heuristic solution: objective 204.0000000
Found heuristic solution: objective 199.0000000
Elapsed time for NoRel heuristic: 55s (best bound 0)
Elapsed time for NoRel heuristic: 64s (best bound 0)
Found heuristic solution: objective 196.0000000
Found heuristic solution: objective 188.0000000
Found heuristic solution: objective 186.0000000
Found heuristic solution: objective 184.0000000
Found heuristic solution: objective 181.0000000
Found heuristic solution: objective 177.0000000
Elapsed time for NoRel heuristic: 70s (best bound 0)
Found heuristic solution: objective 159.0000000
Found heuristic solution: objective 144.0000000
Found heuristic solution: objective 113.0000000
Found heuristic solution: objective 101.0000000
Found heuristic solution: objective 97.0000000
Elapsed time for NoRel heuristic: 76s (best bound 0)
Found heuristic solution: objective 93.0000000
Found heuristic solution: objective 83.0000000
Found heuristic solution: objective 68.0000000
Found heuristic solution: objective 65.0000000
Elapsed time for NoRel heuristic: 82s (best bound 0)
Found heuristic solution: objective 55.0000000
Found heuristic solution: objective 53.0000000
Found heuristic solution: objective 51.0000000
Elapsed time for NoRel heuristic: 88s (best bound 0)
Found heuristic solution: objective 44.0000000
Found heuristic solution: objective 40.0000000
Elapsed time for NoRel heuristic: 94s (best bound 0)
Found heuristic solution: objective 39.0000000
Found heuristic solution: objective 38.0000000
Found heuristic solution: objective 35.0000000
Elapsed time for NoRel heuristic: 101s (best bound 0)
Found heuristic solution: objective 31.0000000
Elapsed time for NoRel heuristic: 108s (best bound 0)
Found heuristic solution: objective 30.0000000
Elapsed time for NoRel heuristic: 116s (best bound 0)
Found heuristic solution: objective 29.0000000
Found heuristic solution: objective 27.0000000
Elapsed time for NoRel heuristic: 123s (best bound 0)
Found heuristic solution: objective 26.0000000
Found heuristic solution: objective 25.0000000
Found heuristic solution: objective 23.0000000
Elapsed time for NoRel heuristic: 129s (best bound 0)
Found heuristic solution: objective 22.0000000
Elapsed time for NoRel heuristic: 137s (best bound 0)
Found heuristic solution: objective 21.0000000
Elapsed time for NoRel heuristic: 144s (best bound 0)
Elapsed time for NoRel heuristic: 152s (best bound 0)
Found heuristic solution: objective 20.0000000
Elapsed time for NoRel heuristic: 158s (best bound 0)
Elapsed time for NoRel heuristic: 169s (best bound 0)
Found heuristic solution: objective 19.0000000
Found heuristic solution: objective 18.0000000
Elapsed time for NoRel heuristic: 175s (best bound 0)
Elapsed time for NoRel heuristic: 180s (best bound 0)
Found heuristic solution: objective 17.0000000
Found heuristic solution: objective 16.0000000
Elapsed time for NoRel heuristic: 186s (best bound 0)
Found heuristic solution: objective 15.0000000
Elapsed time for NoRel heuristic: 195s (best bound 0)
Found heuristic solution: objective 14.0000000
Elapsed time for NoRel heuristic: 207s (best bound 0)
Elapsed time for NoRel heuristic: 215s (best bound 0)
Found heuristic solution: objective 13.0000000
Elapsed time for NoRel heuristic: 222s (best bound 0)
Found heuristic solution: objective 10.0000000
Elapsed time for NoRel heuristic: 232s (best bound 0)
Found heuristic solution: objective 9.0000000
Elapsed time for NoRel heuristic: 237s (best bound 0)
Found heuristic solution: objective 8.0000000
Elapsed time for NoRel heuristic: 246s (best bound 0)
Elapsed time for NoRel heuristic: 261s (best bound 0)
Found heuristic solution: objective 6.0000000
Elapsed time for NoRel heuristic: 277s (best bound 0)
Elapsed time for NoRel heuristic: 286s (best bound 0)
Elapsed time for NoRel heuristic: 316s (best bound 0)
Found heuristic solution: objective 5.0000000
Elapsed time for NoRel heuristic: 341s (best bound 0)
Elapsed time for NoRel heuristic: 350s (best bound 0)
Elapsed time for NoRel heuristic: 474s (best bound 0)
Elapsed time for NoRel heuristic: 487s (best bound 0)
Elapsed time for NoRel heuristic: 508s (best bound 0)
Elapsed time for NoRel heuristic: 524s (best bound 0)
Elapsed time for NoRel heuristic: 540s (best bound 0)
Elapsed time for NoRel heuristic: 560s (best bound 0)
Elapsed time for NoRel heuristic: 578s (best bound 0)
Elapsed time for NoRel heuristic: 596s (best bound 0)
NoRel heuristic complete

Explored 0 nodes (0 simplex iterations) in 600.19 seconds (421.14 work units)
Thread count was 8 (of 8 available processors)

Solution count 10: 5 6 8 ... 17

Time limit reached
Best objective 5.000000000000e+00, best bound 0.000000000000e+00, gap 100.0000%

Wrote result file 'bnn_mnist_7_label9_adversarial_norm_1.sol'

